NAME : XML100_1143_20
DIMENSION : 101
NB_CLUSTERS : 5
CLUSTERING_ALG : KMedoids
CLUSTERING_PARAMS : k(4)
CLUSTERS
1 0
2 4 8 10 11 13 15 16 20 22 23 27 29 32 33 34 38 47 51 55 59 67 72 74 77 81 83 84 90 92 94 98
3 3 5 9 12 14 17 18 19 26 28 30 35 36 40 41 43 44 45 50 53 56 58 60 66 68 71 75 88 93 95 96 97 100
4 1 21 24 25 31 48 54 57 62 63 69 70 78 79 80 85 89 91
5 2 6 7 37 39 42 46 49 52 61 64 65 73 76 82 86 87 99
EOF